outputs/case_62.model.txt
broker_exercises_faithfulness = False
solicitation_handling_system_established = True
bank_operates_as_broker = False
bank_has_government_permission = True
has_dedicated_account_book = True
has_agent_license = True
internal_control_implemented = True
solicitation_handling_system_implemented = True
has_fixed_business_place = True
bank_operates_as_agent = True
broker_exercises_duty_of_care = False
has_deposit_guarantee = True
has_relevant_insurance = True
within_government_specified_scope = False
has_certain_scale = True
has_notary_license = False
audit_system_implemented = True
is_publicly_listed = False
audit_system_established = True
internal_control_established = True
has_government_license = True
has_practice_certificate = True
written_analysis_report_provided = False
has_broker_license = False
compensation_standard_clearly_informed = False
fixed_business_place_and_account_book = True
internal_control_executed = True
single_license_only = True
broker_duty_of_care_and_faithfulness = False
penalty = False
bank_single_insurance_business = True
internal_control_required = True
broker_must_provide_written_analysis_report = True
license_and_insurance_compliance = True